c at-most-one of 5 pigeons in 4 holes
c p1@1 1
c p1@2 2
c p1@3 3
c p1@4 4
c p2@1 5
c p2@2 6
c p2@3 7
c p2@4 8
c p3@1 9
c p3@2 10
c p3@3 11
c p3@4 12
c p4@1 13
c p4@2 14
c p4@3 15
c p4@4 16
c p5@1 17
c p5@2 18
c p5@3 19
c p5@4 20
p inccnf
1 2 3 4 0
5 6 7 8 0
9 10 11 12 0
13 14 15 16 0
17 18 19 20 0
-1 -5 0
-1 -9 0
-1 -13 0
-1 -17 0
-5 -9 0
-5 -13 0
-5 -17 0
-9 -13 0
-9 -17 0
-13 -17 0
-2 -6 0
-2 -10 0
-2 -14 0
-2 -18 0
-6 -10 0
-6 -14 0
-6 -18 0
-10 -14 0
-10 -18 0
-14 -18 0
-3 -7 0
-3 -11 0
-3 -15 0
-3 -19 0
-7 -11 0
-7 -15 0
-7 -19 0
-11 -15 0
-11 -19 0
-15 -19 0
-4 -8 0
-4 -12 0
-4 -16 0
-4 -20 0
-8 -12 0
-8 -16 0
-8 -20 0
-12 -16 0
-12 -20 0
-16 -20 0
a 1 6 0 
a 2 5 0 
a 1 7 0 
a 3 5 0 
a 1 8 0 
a 4 5 0 
a 1 9 0 
a 5 5 0 
a 5 0 
a 1 10 0 
a 2 9 0 
a 1 11 0 
a 3 9 0 
a 1 12 0 
a 4 9 0 
a 1 13 0 
a 5 9 0 
a 9 0 
a 1 14 0 
a 2 13 0 
a 1 15 0 
a 3 13 0 
a 1 16 0 
a 4 13 0 
a 1 17 0 
a 5 13 0 
a 13 0 
a 6 11 0 
a 7 10 0 
a 6 12 0 
a 8 10 0 
a 6 13 0 
a 9 10 0 
a 10 0 
a 6 15 0 
a 7 14 0 
a 6 16 0 
a 8 14 0 
a 6 17 0 
a 9 14 0 
a 14 0 
a 11 16 0 
a 12 15 0 
a 11 17 0 
a 13 15 0 
a 15 0 
